num_bands       = 60
num_wann        = 14
num_iter        = 0

dis_win_max     = 60.0
dis_win_min     = -10.0
dis_froz_max    = 20.0
dis_froz_min    = -10.0
dis_num_iter    = 100
dis_mix_ratio   = 0.2

Begin Kpoint_Path
G   0.000000  0.000000  0.000000      X   0.500000  0.000000  0.500000
X   0.500000  0.000000  0.500000      W   0.500000  0.250000  0.750000
W   0.500000  0.250000  0.750000      L   0.500000  0.500000  0.500000
L   0.500000  0.500000  0.500000      G   0.000000  0.000000  0.000000
End Kpoint_Path

hr_plot=.true.

! SYSTEM

begin unit_cell_cart
bohr
 5.636703  0.000000  0.000000
 0.000000  5.636703  0.000000
 0.000000  0.000000  5.636703
end unit_cell_cart

begin atoms_frac
S1  0.000000000000000  0.000000000000000  0.000000000000000E+000
H1  0.500000000000000  0.000000000000000  0.000000000000000E+000
H2  0.000000000000000  0.500000000000000  0.000000000000000     
H3  0.000000000000000  0.000000000000000  0.500000000000000     
S2  0.500000000000000  0.500000000000000  0.500000000000000E+000
H4  0.500000000000000  0.500000000000000  0.000000000000000E+000
H5  0.000000000000000  0.500000000000000  0.500000000000000     
H6  0.500000000000000  0.000000000000000  0.500000000000000     
end atoms_frac

begin projections
S1:l=0:r=1
S1:l=1
H1:s
H2:s
H3:s
S2:l=0:r=1
S2:l=1
H4:s
H5:s
H6:s
end projections

! KPOINTS

mp_grid : 6  6  6

begin kpoints
        0.0000000000        0.0000000000        0.0000000000 
        0.1666666667        0.0000000000        0.0000000000 
        0.3333333333        0.0000000000        0.0000000000 
       -0.5000000000        0.0000000000        0.0000000000 
       -0.3333333333        0.0000000000        0.0000000000 
       -0.1666666667        0.0000000000        0.0000000000 
        0.0000000000        0.1666666667        0.0000000000 
        0.1666666667        0.1666666667        0.0000000000 
        0.3333333333        0.1666666667        0.0000000000 
       -0.5000000000        0.1666666667        0.0000000000 
       -0.3333333333        0.1666666667        0.0000000000 
       -0.1666666667        0.1666666667        0.0000000000 
        0.0000000000        0.3333333333        0.0000000000 
        0.1666666667        0.3333333333        0.0000000000 
        0.3333333333        0.3333333333        0.0000000000 
       -0.5000000000        0.3333333333        0.0000000000 
       -0.3333333333        0.3333333333        0.0000000000 
       -0.1666666667        0.3333333333        0.0000000000 
        0.0000000000       -0.5000000000        0.0000000000 
        0.1666666667       -0.5000000000        0.0000000000 
        0.3333333333       -0.5000000000        0.0000000000 
       -0.5000000000       -0.5000000000        0.0000000000 
       -0.3333333333       -0.5000000000        0.0000000000 
       -0.1666666667       -0.5000000000        0.0000000000 
        0.0000000000       -0.3333333333        0.0000000000 
        0.1666666667       -0.3333333333        0.0000000000 
        0.3333333333       -0.3333333333        0.0000000000 
       -0.5000000000       -0.3333333333        0.0000000000 
       -0.3333333333       -0.3333333333        0.0000000000 
       -0.1666666667       -0.3333333333        0.0000000000 
        0.0000000000       -0.1666666667        0.0000000000 
        0.1666666667       -0.1666666667        0.0000000000 
        0.3333333333       -0.1666666667        0.0000000000 
       -0.5000000000       -0.1666666667        0.0000000000 
       -0.3333333333       -0.1666666667        0.0000000000 
       -0.1666666667       -0.1666666667        0.0000000000 
        0.0000000000        0.0000000000        0.1666666667 
        0.1666666667        0.0000000000        0.1666666667 
        0.3333333333        0.0000000000        0.1666666667 
       -0.5000000000        0.0000000000        0.1666666667 
       -0.3333333333        0.0000000000        0.1666666667 
       -0.1666666667        0.0000000000        0.1666666667 
        0.0000000000        0.1666666667        0.1666666667 
        0.1666666667        0.1666666667        0.1666666667 
        0.3333333333        0.1666666667        0.1666666667 
       -0.5000000000        0.1666666667        0.1666666667 
       -0.3333333333        0.1666666667        0.1666666667 
       -0.1666666667        0.1666666667        0.1666666667 
        0.0000000000        0.3333333333        0.1666666667 
        0.1666666667        0.3333333333        0.1666666667 
        0.3333333333        0.3333333333        0.1666666667 
       -0.5000000000        0.3333333333        0.1666666667 
       -0.3333333333        0.3333333333        0.1666666667 
       -0.1666666667        0.3333333333        0.1666666667 
        0.0000000000       -0.5000000000        0.1666666667 
        0.1666666667       -0.5000000000        0.1666666667 
        0.3333333333       -0.5000000000        0.1666666667 
       -0.5000000000       -0.5000000000        0.1666666667 
       -0.3333333333       -0.5000000000        0.1666666667 
       -0.1666666667       -0.5000000000        0.1666666667 
        0.0000000000       -0.3333333333        0.1666666667 
        0.1666666667       -0.3333333333        0.1666666667 
        0.3333333333       -0.3333333333        0.1666666667 
       -0.5000000000       -0.3333333333        0.1666666667 
       -0.3333333333       -0.3333333333        0.1666666667 
       -0.1666666667       -0.3333333333        0.1666666667 
        0.0000000000       -0.1666666667        0.1666666667 
        0.1666666667       -0.1666666667        0.1666666667 
        0.3333333333       -0.1666666667        0.1666666667 
       -0.5000000000       -0.1666666667        0.1666666667 
       -0.3333333333       -0.1666666667        0.1666666667 
       -0.1666666667       -0.1666666667        0.1666666667 
        0.0000000000        0.0000000000        0.3333333333 
        0.1666666667        0.0000000000        0.3333333333 
        0.3333333333        0.0000000000        0.3333333333 
       -0.5000000000        0.0000000000        0.3333333333 
       -0.3333333333        0.0000000000        0.3333333333 
       -0.1666666667        0.0000000000        0.3333333333 
        0.0000000000        0.1666666667        0.3333333333 
        0.1666666667        0.1666666667        0.3333333333 
        0.3333333333        0.1666666667        0.3333333333 
       -0.5000000000        0.1666666667        0.3333333333 
       -0.3333333333        0.1666666667        0.3333333333 
       -0.1666666667        0.1666666667        0.3333333333 
        0.0000000000        0.3333333333        0.3333333333 
        0.1666666667        0.3333333333        0.3333333333 
        0.3333333333        0.3333333333        0.3333333333 
       -0.5000000000        0.3333333333        0.3333333333 
       -0.3333333333        0.3333333333        0.3333333333 
       -0.1666666667        0.3333333333        0.3333333333 
        0.0000000000       -0.5000000000        0.3333333333 
        0.1666666667       -0.5000000000        0.3333333333 
        0.3333333333       -0.5000000000        0.3333333333 
       -0.5000000000       -0.5000000000        0.3333333333 
       -0.3333333333       -0.5000000000        0.3333333333 
       -0.1666666667       -0.5000000000        0.3333333333 
        0.0000000000       -0.3333333333        0.3333333333 
        0.1666666667       -0.3333333333        0.3333333333 
        0.3333333333       -0.3333333333        0.3333333333 
       -0.5000000000       -0.3333333333        0.3333333333 
       -0.3333333333       -0.3333333333        0.3333333333 
       -0.1666666667       -0.3333333333        0.3333333333 
        0.0000000000       -0.1666666667        0.3333333333 
        0.1666666667       -0.1666666667        0.3333333333 
        0.3333333333       -0.1666666667        0.3333333333 
       -0.5000000000       -0.1666666667        0.3333333333 
       -0.3333333333       -0.1666666667        0.3333333333 
       -0.1666666667       -0.1666666667        0.3333333333 
        0.0000000000        0.0000000000       -0.5000000000 
        0.1666666667        0.0000000000       -0.5000000000 
        0.3333333333        0.0000000000       -0.5000000000 
       -0.5000000000        0.0000000000       -0.5000000000 
       -0.3333333333        0.0000000000       -0.5000000000 
       -0.1666666667        0.0000000000       -0.5000000000 
        0.0000000000        0.1666666667       -0.5000000000 
        0.1666666667        0.1666666667       -0.5000000000 
        0.3333333333        0.1666666667       -0.5000000000 
       -0.5000000000        0.1666666667       -0.5000000000 
       -0.3333333333        0.1666666667       -0.5000000000 
       -0.1666666667        0.1666666667       -0.5000000000 
        0.0000000000        0.3333333333       -0.5000000000 
        0.1666666667        0.3333333333       -0.5000000000 
        0.3333333333        0.3333333333       -0.5000000000 
       -0.5000000000        0.3333333333       -0.5000000000 
       -0.3333333333        0.3333333333       -0.5000000000 
       -0.1666666667        0.3333333333       -0.5000000000 
        0.0000000000       -0.5000000000       -0.5000000000 
        0.1666666667       -0.5000000000       -0.5000000000 
        0.3333333333       -0.5000000000       -0.5000000000 
       -0.5000000000       -0.5000000000       -0.5000000000 
       -0.3333333333       -0.5000000000       -0.5000000000 
       -0.1666666667       -0.5000000000       -0.5000000000 
        0.0000000000       -0.3333333333       -0.5000000000 
        0.1666666667       -0.3333333333       -0.5000000000 
        0.3333333333       -0.3333333333       -0.5000000000 
       -0.5000000000       -0.3333333333       -0.5000000000 
       -0.3333333333       -0.3333333333       -0.5000000000 
       -0.1666666667       -0.3333333333       -0.5000000000 
        0.0000000000       -0.1666666667       -0.5000000000 
        0.1666666667       -0.1666666667       -0.5000000000 
        0.3333333333       -0.1666666667       -0.5000000000 
       -0.5000000000       -0.1666666667       -0.5000000000 
       -0.3333333333       -0.1666666667       -0.5000000000 
       -0.1666666667       -0.1666666667       -0.5000000000 
        0.0000000000        0.0000000000       -0.3333333333 
        0.1666666667        0.0000000000       -0.3333333333 
        0.3333333333        0.0000000000       -0.3333333333 
       -0.5000000000        0.0000000000       -0.3333333333 
       -0.3333333333        0.0000000000       -0.3333333333 
       -0.1666666667        0.0000000000       -0.3333333333 
        0.0000000000        0.1666666667       -0.3333333333 
        0.1666666667        0.1666666667       -0.3333333333 
        0.3333333333        0.1666666667       -0.3333333333 
       -0.5000000000        0.1666666667       -0.3333333333 
       -0.3333333333        0.1666666667       -0.3333333333 
       -0.1666666667        0.1666666667       -0.3333333333 
        0.0000000000        0.3333333333       -0.3333333333 
        0.1666666667        0.3333333333       -0.3333333333 
        0.3333333333        0.3333333333       -0.3333333333 
       -0.5000000000        0.3333333333       -0.3333333333 
       -0.3333333333        0.3333333333       -0.3333333333 
       -0.1666666667        0.3333333333       -0.3333333333 
        0.0000000000       -0.5000000000       -0.3333333333 
        0.1666666667       -0.5000000000       -0.3333333333 
        0.3333333333       -0.5000000000       -0.3333333333 
       -0.5000000000       -0.5000000000       -0.3333333333 
       -0.3333333333       -0.5000000000       -0.3333333333 
       -0.1666666667       -0.5000000000       -0.3333333333 
        0.0000000000       -0.3333333333       -0.3333333333 
        0.1666666667       -0.3333333333       -0.3333333333 
        0.3333333333       -0.3333333333       -0.3333333333 
       -0.5000000000       -0.3333333333       -0.3333333333 
       -0.3333333333       -0.3333333333       -0.3333333333 
       -0.1666666667       -0.3333333333       -0.3333333333 
        0.0000000000       -0.1666666667       -0.3333333333 
        0.1666666667       -0.1666666667       -0.3333333333 
        0.3333333333       -0.1666666667       -0.3333333333 
       -0.5000000000       -0.1666666667       -0.3333333333 
       -0.3333333333       -0.1666666667       -0.3333333333 
       -0.1666666667       -0.1666666667       -0.3333333333 
        0.0000000000        0.0000000000       -0.1666666667 
        0.1666666667        0.0000000000       -0.1666666667 
        0.3333333333        0.0000000000       -0.1666666667 
       -0.5000000000        0.0000000000       -0.1666666667 
       -0.3333333333        0.0000000000       -0.1666666667 
       -0.1666666667        0.0000000000       -0.1666666667 
        0.0000000000        0.1666666667       -0.1666666667 
        0.1666666667        0.1666666667       -0.1666666667 
        0.3333333333        0.1666666667       -0.1666666667 
       -0.5000000000        0.1666666667       -0.1666666667 
       -0.3333333333        0.1666666667       -0.1666666667 
       -0.1666666667        0.1666666667       -0.1666666667 
        0.0000000000        0.3333333333       -0.1666666667 
        0.1666666667        0.3333333333       -0.1666666667 
        0.3333333333        0.3333333333       -0.1666666667 
       -0.5000000000        0.3333333333       -0.1666666667 
       -0.3333333333        0.3333333333       -0.1666666667 
       -0.1666666667        0.3333333333       -0.1666666667 
        0.0000000000       -0.5000000000       -0.1666666667 
        0.1666666667       -0.5000000000       -0.1666666667 
        0.3333333333       -0.5000000000       -0.1666666667 
       -0.5000000000       -0.5000000000       -0.1666666667 
       -0.3333333333       -0.5000000000       -0.1666666667 
       -0.1666666667       -0.5000000000       -0.1666666667 
        0.0000000000       -0.3333333333       -0.1666666667 
        0.1666666667       -0.3333333333       -0.1666666667 
        0.3333333333       -0.3333333333       -0.1666666667 
       -0.5000000000       -0.3333333333       -0.1666666667 
       -0.3333333333       -0.3333333333       -0.1666666667 
       -0.1666666667       -0.3333333333       -0.1666666667 
        0.0000000000       -0.1666666667       -0.1666666667 
        0.1666666667       -0.1666666667       -0.1666666667 
        0.3333333333       -0.1666666667       -0.1666666667 
       -0.5000000000       -0.1666666667       -0.1666666667 
       -0.3333333333       -0.1666666667       -0.1666666667 
       -0.1666666667       -0.1666666667       -0.1666666667 
end kpoints
